x low 4.00
p edge 189 552
n 0 1.00
n 16 1.00
n 15 1.00
n 18 1.00
n 17 1.00
n 19 1.00
n 3 1.00
n 2 1.00
n 1 1.00
n 197 1.00
n 173 1.00
n 172 1.00
n 6 1.00
n 5 1.00
n 4 1.00
n 39 1.00
n 8 1.00
n 7 1.00
n 99 1.00
n 153 1.00
n 9 1.00
n 10 1.00
n 40 1.00
n 11 1.00
n 85 1.00
n 12 1.00
n 56 1.00
n 57 1.00
n 68 1.00
n 70 1.00
n 13 1.00
n 14 1.00
n 22 1.00
n 28 1.00
n 30 1.00
n 37 1.00
n 41 1.00
n 42 1.00
n 21 1.00
n 20 1.00
n 167 1.00
n 166 1.00
n 23 1.00
n 24 1.00
n 48 1.00
n 62 1.00
n 27 1.00
n 26 1.00
n 25 1.00
n 34 1.00
n 47 1.00
n 33 1.00
n 29 1.00
n 32 1.00
n 31 1.00
n 35 1.00
n 36 1.00
n 45 1.00
n 38 1.00
n 46 1.00
n 50 1.00
n 49 1.00
n 52 1.00
n 44 1.00
n 43 1.00
n 55 1.00
n 58 1.00
n 54 1.00
n 53 1.00
n 51 1.00
n 63 1.00
n 64 1.00
n 75 1.00
n 76 1.00
n 61 1.00
n 60 1.00
n 59 1.00
n 67 1.00
n 66 1.00
n 69 1.00
n 65 1.00
n 74 1.00
n 79 1.00
n 78 1.00
n 105 1.00
n 106 1.00
n 77 1.00
n 80 1.00
n 89 1.00
n 73 1.00
n 72 1.00
n 71 1.00
n 84 1.00
n 83 1.00
n 82 1.00
n 81 1.00
n 88 1.00
n 93 1.00
n 94 1.00
n 92 1.00
n 91 1.00
n 90 1.00
n 95 1.00
n 87 1.00
n 86 1.00
n 98 1.00
n 97 1.00
n 96 1.00
n 102 1.00
n 103 1.00
n 104 1.00
n 101 1.00
n 100 1.00
n 121 1.00
n 114 1.00
n 113 1.00
n 112 1.00
n 111 1.00
n 107 1.00
n 109 1.00
n 110 1.00
n 119 1.00
n 168 1.00
n 118 1.00
n 117 1.00
n 116 1.00
n 115 1.00
n 120 1.00
n 122 1.00
n 123 1.00
n 138 1.00
n 137 1.00
n 124 1.00
n 130 1.00
n 125 1.00
n 169 1.00
n 126 1.00
n 129 1.00
n 127 1.00
n 128 1.00
n 170 1.00
n 136 1.00
n 171 1.00
n 132 1.00
n 135 1.00
n 131 1.00
n 134 1.00
n 133 1.00
n 140 1.00
n 139 1.00
n 143 1.00
n 150 1.00
n 141 1.00
n 146 1.00
n 158 1.00
n 159 1.00
n 142 1.00
n 145 1.00
n 144 1.00
n 149 1.00
n 148 1.00
n 147 1.00
n 151 1.00
n 152 1.00
n 161 1.00
n 162 1.00
n 163 1.00
n 165 1.00
n 189 1.00
n 190 1.00
n 191 1.00
n 192 1.00
n 181 1.00
n 175 1.00
n 174 1.00
n 193 1.00
n 177 1.00
n 176 1.00
n 180 1.00
n 179 1.00
n 182 1.00
n 183 1.00
n 178 1.00
n 194 1.00
n 184 1.00
n 188 1.00
n 187 1.00
n 186 1.00
n 195 1.00
e 0 16
e 0 15
e 0 18
e 0 17
e 0 19
e 0 3
e 0 2
e 0 1
e 0 197
e 0 173
e 0 172
e 0 6
e 1 2
e 1 5
e 1 6
e 2 3
e 2 5
e 2 4
e 3 15
e 3 4
e 3 39
e 4 5
e 4 39
e 4 8
e 4 7
e 5 6
e 5 7
e 6 7
e 7 8
e 7 99
e 7 153
e 8 39
e 8 9
e 8 99
e 9 39
e 9 10
e 9 99
e 10 40
e 10 39
e 10 11
e 10 85
e 10 99
e 11 40
e 11 12
e 11 85
e 12 40
e 12 56
e 12 57
e 12 68
e 12 70
e 12 85
e 13 16
e 13 14
e 13 22
e 13 28
e 13 30
e 13 37
e 13 39
e 13 40
e 13 41
e 13 42
e 14 16
e 14 15
e 14 39
e 15 16
e 15 39
e 16 17
e 16 22
e 17 18
e 17 22
e 18 19
e 18 22
e 18 21
e 18 20
e 19 20
e 19 172
e 19 167
e 19 166
e 20 21
e 20 23
e 20 24
e 20 166
e 20 48
e 20 62
e 21 22
e 21 23
e 21 27
e 21 26
e 22 27
e 22 28
e 23 24
e 23 25
e 23 26
e 24 25
e 24 34
e 24 47
e 24 48
e 25 26
e 25 33
e 25 34
e 26 27
e 26 33
e 27 28
e 27 29
e 27 32
e 27 33
e 28 29
e 28 31
e 28 30
e 29 31
e 29 32
e 29 35
e 30 31
e 30 36
e 30 37
e 31 35
e 31 36
e 32 33
e 32 35
e 32 45
e 33 34
e 33 38
e 33 45
e 34 38
e 34 47
e 34 46
e 34 50
e 34 49
e 35 36
e 35 45
e 35 52
e 36 37
e 36 44
e 36 52
e 37 44
e 37 42
e 37 43
e 38 45
e 38 46
e 39 40
e 40 41
e 40 56
e 41 42
e 41 56
e 41 55
e 41 58
e 42 43
e 42 55
e 43 55
e 43 44
e 43 54
e 43 53
e 44 52
e 44 53
e 45 46
e 45 51
e 45 52
e 46 51
e 46 50
e 47 49
e 47 48
e 48 49
e 48 63
e 48 62
e 49 50
e 49 63
e 50 51
e 50 64
e 50 63
e 50 75
e 50 76
e 51 52
e 51 61
e 51 64
e 52 53
e 52 60
e 52 61
e 53 54
e 53 60
e 54 55
e 54 59
e 54 60
e 55 59
e 55 58
e 56 58
e 56 57
e 57 58
e 57 67
e 57 68
e 58 59
e 58 66
e 58 67
e 59 60
e 59 66
e 59 69
e 60 61
e 60 65
e 60 69
e 61 64
e 61 65
e 61 74
e 62 63
e 62 79
e 62 166
e 62 78
e 62 105
e 62 106
e 63 76
e 63 77
e 63 79
e 64 75
e 64 74
e 64 80
e 64 89
e 65 69
e 65 74
e 65 73
e 66 67
e 66 69
e 66 72
e 67 68
e 67 72
e 67 71
e 67 84
e 68 84
e 68 70
e 69 72
e 69 73
e 69 83
e 69 82
e 70 84
e 70 85
e 71 72
e 71 84
e 71 83
e 72 83
e 73 74
e 73 81
e 73 82
e 74 81
e 74 88
e 74 89
e 75 76
e 75 80
e 75 93
e 75 94
e 76 77
e 76 93
e 76 92
e 77 79
e 77 92
e 78 79
e 78 91
e 78 105
e 79 91
e 79 90
e 79 92
e 80 89
e 80 95
e 80 94
e 81 82
e 81 88
e 81 87
e 82 87
e 82 83
e 83 84
e 83 86
e 83 87
e 84 85
e 84 99
e 84 86
e 85 99
e 86 87
e 86 99
e 86 98
e 86 97
e 87 88
e 87 96
e 87 97
e 88 89
e 88 96
e 89 95
e 89 96
e 90 91
e 90 92
e 90 102
e 90 103
e 91 103
e 91 105
e 91 104
e 92 93
e 92 101
e 92 102
e 93 94
e 93 100
e 93 101
e 94 95
e 94 100
e 95 96
e 95 100
e 96 97
e 96 100
e 96 121
e 97 98
e 97 121
e 97 153
e 98 99
e 98 153
e 99 153
e 100 101
e 100 102
e 100 121
e 101 102
e 102 103
e 102 114
e 102 121
e 103 104
e 103 113
e 103 114
e 104 105
e 104 112
e 104 113
e 105 106
e 105 112
e 105 111
e 106 166
e 106 107
e 106 109
e 106 110
e 106 111
e 107 166
e 107 109
e 107 167
e 107 119
e 107 168
e 109 110
e 109 118
e 109 119
e 110 111
e 110 118
e 110 117
e 111 112
e 111 116
e 111 117
e 112 113
e 112 115
e 112 116
e 113 115
e 113 114
e 114 115
e 114 120
e 114 121
e 115 116
e 115 120
e 116 117
e 116 120
e 117 118
e 117 120
e 117 122
e 118 119
e 118 122
e 119 168
e 119 123
e 119 122
e 120 121
e 120 122
e 120 138
e 121 138
e 121 153
e 122 123
e 122 137
e 122 138
e 123 168
e 123 124
e 123 130
e 123 137
e 124 125
e 124 168
e 124 130
e 125 169
e 125 168
e 125 126
e 125 130
e 125 129
e 126 127
e 126 169
e 126 129
e 126 128
e 127 167
e 127 169
e 127 170
e 127 128
e 127 136
e 127 171
e 128 129
e 128 132
e 128 135
e 128 136
e 129 130
e 129 132
e 130 132
e 130 131
e 130 137
e 131 132
e 131 134
e 131 133
e 131 137
e 132 135
e 132 134
e 133 134
e 133 140
e 133 139
e 133 137
e 134 135
e 134 140
e 135 140
e 135 136
e 135 143
e 136 171
e 136 143
e 136 150
e 137 138
e 137 139
e 137 141
e 137 146
e 137 158
e 137 159
e 138 158
e 138 153
e 139 140
e 139 142
e 139 141
e 140 142
e 140 143
e 141 142
e 141 145
e 141 146
e 142 143
e 142 144
e 142 145
e 143 144
e 143 149
e 143 150
e 144 145
e 144 149
e 144 148
e 145 146
e 145 148
e 146 148
e 146 147
e 146 159
e 147 148
e 147 151
e 147 152
e 147 159
e 148 149
e 148 151
e 149 150
e 149 151
e 149 161
e 149 162
e 150 171
e 150 163
e 150 162
e 151 152
e 151 161
e 152 159
e 152 161
e 158 159
e 161 162
e 162 163
e 163 171
e 165 171
e 165 170
e 165 189
e 165 190
e 165 191
e 165 192
e 166 167
e 167 172
e 167 168
e 167 169
e 167 170
e 167 181
e 168 169
e 170 171
e 170 181
e 170 189
e 172 173
e 172 175
e 172 181
e 173 197
e 173 175
e 173 174
e 173 193
e 174 175
e 174 193
e 174 177
e 174 176
e 175 176
e 175 180
e 175 181
e 176 177
e 176 180
e 176 179
e 176 182
e 176 183
e 177 193
e 177 178
e 177 179
e 178 193
e 178 179
e 178 194
e 178 184
e 179 184
e 179 183
e 180 181
e 180 182
e 181 182
e 181 188
e 181 189
e 182 183
e 182 188
e 182 187
e 183 184
e 183 187
e 184 194
e 184 186
e 184 187
e 186 194
e 186 195
e 186 192
e 186 191
e 186 187
e 187 188
e 187 189
e 187 190
e 187 191
e 188 189
e 189 190
e 190 191
e 191 192
e 193 197
e 193 194
e 194 195
e 194 197
e 195 197
e 0 195
e 153 158
e 161 159
e 163 165
e 192 195
